001 000 000 000 000 000 000 000 -99 -99 -99 -99 -99 000 000 000 -99 -99 000 000 000 000 000 000 000 -99 -99 -99 -99 -99 000
000 000 001 000 000 000 000 000 000 -99 -99 -99 -99 000 000 000 000 -99 -99 000 000 000 000 000 000 000 000 000 -99 -99 -99
000 000 000 000 000 000 000 000 000 000 -99 -99 -99 -99 000 000 000 000 000 000 000 000 000 000 000 000 000 000 000 -99 -99
000 000 000 000 000 000 001 000 000 000 000 -99 -99 -99 000 000 000 000 000 000 000 000 000 000 000 000 001 000 -99 -99 -99
000 001 000 000 000 000 002 001 000 000 000 000 000 -99 -99 -99 000 000 000 000 000 000 000 000 002 002 001 001 -99 -99 -99
000 001 000 000 000 001 001 000 000 000 000 000 000 -99 -99 000 000 000 000 000 000 000 000 000 002 001 001 001 -99 -99 -99
000 001 001 000 000 001 000 000 000 000 000 000 000 000 000 000 000 000 000 000 000 000 000 001 002 001 001 -99 -99 -99 -99
000 000 001 000 000 000 000 001 001 000 000 000 000 000 000 000 000 001 000 000 000 000 000 000 002 002 003 -99 -99 -99 -99
000 000 001 000 000 000 000 002 001 000 000 000 000 -99 000 000 000 002 000 000 000 000 000 000 002 002 003 -99 -99 -99 -99
000 001 001 000 000 001 000 001 001 002 000 000 000 000 000 000 000 000 000 000 000 000 -99 -99 000 012 -99 -99 -99 -99 -99
001 001 000 000 000 000 000 000 000 000 000 000 000 000 000 000 000 000 000 000 000 000 -99 -99 000 001 -99 -99 -99 -99 000
001 000 000 000 000 000 000 000 000 000 000 000 000 000 000 000 000 000 000 000 000 000 -99 -99 000 -99 000 000 -99 -99 000
001 000 000 000 000 000 000 000 000 000 000 000 000 000 000 000 000 000 000 000 000 000 002 -99 -99 -99 000 000 -99 -99 -99
000 000 000 000 000 000 000 000 001 000 000 000 000 000 000 000 000 000 000 000 000 000 002 000 000 -99 000 000 -99 -99 -99
000 000 000 000 000 000 000 000 000 000 000 000 000 000 000 000 000 000 -99 -99 -99 000 -99 000 000 000 000 000 -99 -99 -99
000 000 000 000 000 000 000 000 000 000 000 000 000 000 000 000 000 000 -99 -99 -99 000 -99 000 000 000 000 000 -99 -99 -99
000 -99 -99 000 000 000 000 000 000 000 000 000 000 000 000 000 000 000 000 -99 -99 -99 000 -99 000 -99 000 000 -99 -99 -99
000 000 000 -99 000 000 000 000 000 000 000 000 000 000 000 000 000 000 000 -99 -99 -99 000 -99 -99 -99 000 000 -99 -99 -99
000 000 000 000 -99 -99 -99 000 000 000 000 000 000 000 000 000 000 000 000 -99 -99 -99 000 -99 -99 -99 -99 -99 -99 -99 -99
000 000 000 000 -99 -99 -99 000 000 000 000 000 -99 000 000 000 000 000 000 000 000 000 000 -99 -99 -99 -99 -99 -99 -99 -99
000 000 000 000 000 -99 -99 -99 000 000 000 000 000 000 000 000 000 000 000 000 000 000 000 -99 -99 -99 -99 -99 -99 -99 -99
000 000 000 000 000 000 000 000 000 000 000 000 000 000 000 000 000 000 000 000 000 000 000 -99 -99 -99 -99 -99 -99 -99 -99
000 000 000 000 000 000 000 000 001 000 000 000 000 000 000 000 000 000 000 000 000 000 000 -99 -99 -99 -99 -99 -99 -99 -99
000 000 000 000 000 000 000 000 003 002 001 001 000 000 000 000 000 000 000 000 000 000 000 -99 -99 -99 -99 -99 -99 -99 -99
000 000 000 000 000 000 002 002 001 001 001 001 001 000 001 000 000 000 000 000 000 000 000 -99 -99 -99 -99 -99 -99 -99 -99
000 000 000 000 000 000 005 004 001 001 002 001 001 002 002 000 000 000 000 000 000 002 001 -99 -99 -99 -99 -99 -99 -99 000
000 000 000 000 000 001 006 005 002 001 002 001 002 001 001 000 000 000 000 000 001 006 010 -99 016 -99 -99 -99 -99 -99 001
000 000 000 000 000 006 005 005 004 002 002 002 003 002 001 000 000 000 000 000 002 010 023 021 023 -99 -99 -99 006 003 001
000 000 000 000 000 004 005 006 005 004 003 002 002 002 001 000 000 000 000 000 003 012 023 019 031 021 017 013 007 004 002
000 000 000 000 000 002 001 004 003 003 004 003 002 004 001 000 000 000 000 000 002 007 035 024 020 018 018 013 010 009 004
000 000 000 000 000 000 001 002 003 004 003 003 002 002 001 000 000 000 000 000 001 005 015 014 008 014 015 012 012 011 006
000 000 000 000 000 000 000 001 002 003 004 003 002 002 002 001 000 000 000 000 000 001 004 004 005 013 018 015 009 009 005
000 000 000 000 000 000 000 001 003 006 005 003 003 002 002 001 001 001 000 000 000 000 002 001 002 016 022 017 010 006 005
000 000 000 000 000 000 000 002 002 006 003 002 002 002 003 002 000 000 000 000 000 000 000 000 001 004 013 024 010 006 006
000 000 000 000 000 000 000 001 001 003 002 002 001 001 002 001 000 000 000 000 000 000 000 000 001 003 012 015 010 006 006
000 000 000 000 000 000 000 000 001 003 001 000 001 001 001 001 000 000 000 000 000 000 000 000 000 002 004 003 005 006 007
000 000 000 000 000 000 000 000 000 000 000 000 001 001 000 000 000 000 000 000 000 000 000 000 000 001 001 000 001 001 003
000 000 000 000 000 000 000 000 000 000 000 000 002 000 000 000 000 000 000 000 000 000 000 000 000 000 000 000 000 001 002
000 000 000 000 000 000 000 000 000 000 000 000 001 000 000 000 000 000 000 -99 000 000 000 000 000 000 000 000 001 001 002
000 000 000 000 000 000 000 000 000 000 000 000 000 000 000 000 000 000 000 -99 000 000 000 000 000 000 000 000 001 002 002
000 000 -99 000 000 000 000 000 000 000 000 000 000 000 000 000 000 -99 000 000 000 000 000 000 000 000 000 000 001 002 001
000 000 000 000 000 000 000 000 000 000 000 000 000 000 000 000 000 000 000 000 000 000 000 000 000 000 -99 000 000 000 001
000 000 -99 -99 -99 000 000 000 -99 000 000 000 000 000 000 000 000 000 000 000 000 000 000 000 000 000 000 000 000 000 001
000 000 -99 -99 -99 000 -99 -99 -99 -99 000 000 000 000 000 000 000 000 000 000 000 000 000 000 000 000 000 000 000 000 001
000 000 -99 -99 -99 -99 -99 -99 -99 -99 000 000 000 000 000 000 000 000 000 000 000 000 002 001 000 000 000 000 -99 -99 001
-99 -99 -99 -99 -99 -99 -99 -99 -99 000 000 000 000 000 000 -99 -99 000 000 000 000 000 001 003 001 000 000 000 -99 000 001
000 -99 -99 -99 -99 -99 -99 -99 -99 000 000 000 000 000 000 -99 -99 -99 000 000 000 000 002 004 002 001 001 -99 000 000 000
-99 -99 -99 -99 -99 -99 -99 -99 -99 000 000 000 000 000 000 -99 -99 000 000 000 000 000 001 001 002 001 000 001 000 000 000
-99 -99 -99 -99 -99 -99 -99 -99 -99 -99 000 -99 000 000 000 000 000 000 000 000 000 000 000 001 002 002 003 002 000 000 000
000 000 000 -99 -99 -99 -99 -99 -99 -99 -99 000 000 000 000 000 000 000 000 000 -99 000 000 000 000 001 005 003 000 -99 000
000 000 000 000 -99 000 -99 -99 -99 -99 -99 -99 000 000 000 001 002 000 000 000 000 -99 -99 000 000 001 007 001 000 -99 -99
001 000 000 000 -99 000 000 -99 -99 -99 -99 -99 000 000 000 003 003 001 000 000 000 -99 000 000 000 001 004 000 000 -99 -99
001 000 000 000 -99 000 000 000 000 -99 -99 -99 000 000 003 005 003 003 001 000 000 001 -99 000 000 000 000 000 -99 -99 -99
002 001 000 000 -99 -99 000 -99 000 000 -99 000 000 000 001 003 008 004 002 002 000 001 000 000 000 000 000 -99 -99 -99 -99
001 000 000 000 -99 000 -99 -99 -99 -99 -99 -99 -99 000 002 006 005 006 006 009 003 001 000 -99 -99 000 -99 -99 -99 -99 -99
